c "910790.clq"
p edge 120 464
e 1 5
e 1 7
e 1 11
e 1 12
e 1 17
e 1 18
e 1 23
e 1 25
e 1 43
e 1 47
e 1 53
e 1 56
e 1 58
e 1 84
e 1 93
e 1 102
e 1 113
e 2 5
e 2 6
e 2 10
e 2 13
e 2 15
e 2 30
e 2 42
e 2 44
e 2 62
e 2 78
e 2 95
e 2 120
e 3 5
e 3 6
e 3 7
e 3 8
e 3 9
e 3 12
e 3 13
e 3 15
e 3 19
e 3 20
e 3 22
e 3 24
e 3 26
e 3 29
e 3 34
e 3 35
e 3 36
e 3 40
e 3 45
e 3 70
e 3 71
e 3 76
e 3 86
e 3 88
e 3 114
e 3 116
e 3 117
e 4 5
e 4 6
e 4 7
e 4 9
e 4 10
e 4 13
e 4 14
e 4 16
e 4 26
e 4 32
e 4 35
e 4 38
e 4 55
e 4 64
e 4 69
e 4 71
e 4 81
e 4 84
e 4 102
e 5 6
e 5 8
e 5 14
e 5 16
e 5 25
e 5 26
e 5 27
e 5 30
e 5 31
e 5 33
e 5 57
e 5 64
e 5 82
e 5 83
e 5 93
e 5 94
e 5 99
e 5 116
e 6 7
e 6 8
e 6 9
e 6 10
e 6 11
e 6 14
e 6 16
e 6 20
e 6 24
e 6 26
e 6 27
e 6 31
e 6 33
e 6 39
e 6 40
e 6 45
e 6 48
e 6 49
e 6 50
e 6 51
e 6 59
e 6 63
e 6 67
e 6 72
e 6 77
e 6 79
e 6 86
e 6 96
e 6 97
e 6 106
e 6 111
e 6 112
e 6 118
e 7 8
e 7 9
e 7 11
e 7 15
e 7 16
e 7 17
e 7 18
e 7 21
e 7 22
e 7 24
e 7 27
e 7 33
e 7 36
e 7 38
e 7 41
e 7 43
e 7 45
e 7 48
e 7 55
e 7 58
e 7 62
e 7 69
e 7 72
e 7 74
e 7 76
e 7 79
e 7 86
e 7 94
e 7 95
e 7 101
e 7 104
e 7 105
e 7 108
e 7 112
e 8 12
e 8 13
e 8 14
e 8 17
e 8 19
e 8 23
e 8 30
e 8 40
e 8 47
e 8 50
e 8 78
e 8 92
e 8 96
e 8 102
e 8 105
e 8 109
e 8 119
e 9 10
e 9 11
e 9 12
e 9 17
e 9 18
e 9 23
e 9 24
e 9 28
e 9 30
e 9 41
e 9 51
e 9 52
e 9 60
e 9 68
e 9 75
e 9 80
e 9 87
e 9 94
e 9 100
e 9 103
e 9 111
e 10 15
e 10 31
e 10 32
e 10 34
e 10 37
e 10 43
e 10 46
e 10 54
e 10 60
e 10 73
e 10 74
e 10 89
e 10 93
e 10 99
e 10 102
e 10 110
e 10 115
e 11 18
e 11 76
e 11 107
e 12 19
e 12 28
e 12 41
e 12 42
e 12 53
e 12 66
e 12 79
e 12 92
e 13 21
e 13 59
e 13 73
e 13 120
e 14 27
e 14 29
e 14 32
e 14 39
e 14 44
e 14 52
e 14 56
e 14 57
e 14 81
e 14 84
e 14 89
e 14 98
e 14 100
e 14 117
e 15 37
e 15 73
e 15 74
e 15 82
e 15 87
e 15 89
e 15 95
e 15 107
e 15 110
e 16 78
e 16 112
e 17 20
e 17 21
e 17 41
e 17 51
e 17 61
e 17 98
e 17 115
e 18 19
e 18 20
e 18 23
e 18 28
e 18 29
e 18 35
e 18 39
e 18 42
e 18 50
e 18 63
e 18 67
e 18 83
e 18 93
e 18 99
e 18 109
e 18 118
e 18 119
e 19 21
e 19 22
e 19 25
e 19 34
e 19 54
e 19 90
e 19 116
e 20 28
e 20 46
e 20 59
e 20 82
e 21 22
e 21 25
e 21 31
e 21 35
e 21 36
e 21 47
e 21 60
e 21 65
e 21 72
e 21 103
e 22 39
e 22 48
e 22 50
e 22 71
e 22 75
e 22 81
e 23 46
e 23 49
e 23 53
e 24 32
e 24 36
e 24 44
e 25 44
e 25 58
e 25 86
e 25 120
e 26 61
e 26 68
e 26 77
e 26 104
e 27 55
e 27 62
e 28 29
e 28 33
e 28 34
e 28 48
e 28 61
e 28 66
e 28 67
e 28 75
e 28 80
e 28 88
e 29 37
e 29 46
e 29 56
e 29 96
e 29 103
e 30 38
e 30 40
e 30 56
e 30 65
e 30 66
e 30 84
e 30 92
e 30 97
e 30 104
e 30 108
e 30 117
e 31 68
e 32 42
e 32 51
e 32 54
e 32 62
e 32 71
e 32 81
e 32 91
e 32 98
e 33 43
e 34 45
e 35 64
e 35 65
e 35 69
e 36 37
e 36 38
e 36 49
e 36 57
e 36 82
e 36 109
e 36 113
e 37 106
e 38 67
e 38 70
e 38 85
e 38 104
e 38 109
e 38 114
e 39 54
e 39 55
e 39 87
e 39 89
e 40 52
e 40 63
e 41 49
e 41 64
e 41 73
e 41 91
e 41 101
e 42 105
e 43 47
e 43 70
e 43 90
e 43 100
e 43 108
e 44 103
e 46 52
e 48 114
e 49 59
e 49 60
e 52 53
e 52 57
e 52 61
e 52 92
e 53 58
e 53 88
e 54 77
e 54 78
e 54 85
e 54 97
e 55 88
e 56 72
e 56 111
e 58 69
e 58 79
e 58 96
e 58 99
e 58 115
e 59 63
e 59 66
e 60 83
e 61 90
e 62 80
e 62 101
e 63 91
e 64 65
e 64 116
e 65 83
e 65 107
e 66 68
e 66 76
e 67 105
e 68 70
e 68 75
e 69 74
e 69 77
e 69 108
e 71 98
e 71 119
e 74 85
e 74 90
e 75 113
e 76 80
e 76 91
e 76 94
e 76 112
e 77 97
e 77 113
e 78 87
e 78 120
e 82 85
e 84 95
e 84 106
e 86 101
e 86 118
e 90 115
e 91 110
e 92 100
e 94 110
e 99 107
e 101 111
e 103 106
e 109 119
e 110 114
e 112 117
e 114 118
